432
963
1207
1340
1451
1628
1766
1879
2018
2131
2251
2349
2442
2485
2539
2629
2678
2751
2796
2855
2909
2945
3003
3038
3054
3080
3101
3103
3110
3122
3138
3151
3179
3207
3237
3268
3286
3313
3367
3417
3468
3527
3543
3550
3555
3567
3582
3597
3605
3630
3665
3698
3701
3703
3707
3715
3728
3737
3747
3756
3772
3788
3818
3838
3867
3884
3884
3884
3884
3884
3884
3884
3884
3884
3884
3884
3884
3884
3884
3884
3884
3884
3884
3884
3884
3884
3884
3884
3884
3884
3884
3884
3884
3884
3884
3884
3884
3884
3884
